Reading model...
...model read.
creating competitive generators file...
...competitive generators recorded.
Loading data...
.. real-time data read.
Compiling instance...
...instance created.
Creating Offer Mitigation (model will solve as dispatch if TRUE)...
NOTE: storage offers will not be mitigated
...storage offer mitigation file created
Converting model to MPEC...
...converted
NOTE: initial MIP solve with only storage competitive to get feasible solution
Solving...

Welcome to IBM(R) ILOG(R) CPLEX(R) Interactive Optimizer 12.9.0.0
  with Simplex, Mixed Integer & Barrier Optimizers
5725-A06 5725-A29 5724-Y48 5724-Y49 5724-Y54 5724-Y55 5655-Y21
Copyright IBM Corp. 1988, 2019.  All Rights Reserved.

Type 'help' for a list of available commands.
Type 'help' followed by a command name for more
information on commands.

CPLEX> Logfile 'cplex.log' closed.
Logfile 'C:\Users\llavin\Desktop\test85\logs\tmplb33zyon.cplex.log' open.
CPLEX> New value for parallel optimization mode: -1
CPLEX> New value for mixed integer optimality gap tolerance: 0.001
CPLEX> New value for deterministic time limit in ticks: 100000
CPLEX> Problem 'C:\Users\llavin\Desktop\test85\logs\tmpkdm25pyn.pyomo.lp' read.
Read time = 0.52 sec. (27.84 ticks)
CPLEX> Problem name         : C:\Users\llavin\Desktop\test85\logs\tmpkdm25pyn.pyomo.lp
Objective sense      : Maximize
Variables            :  107779  [Nneg: 1,  Box: 44054,  Free: 8928,
                                 Binary: 54796]
Objective nonzeros   :   17426
Linear constraints   :  246995  [Less: 82866,  Greater: 118424,  Equal: 45705]
  Nonzeros           :  580829
  RHS nonzeros       :  134591

Variables            : Min LB: -5000.000        Max UB: 1000000.       
Objective nonzeros   : Min   : 0.1944444        Max   : 2500.000       
Linear constraints   :
  Nonzeros           : Min   : 0.1944444        Max   : 1000000.       
  RHS nonzeros       : Min   : 0.1944444        Max   : 1000000.       
CPLEX> CPXPARAM_Parallel                                -1
CPXPARAM_DetTimeLimit                            100000
CPXPARAM_MIP_Tolerances_MIPGap                   0.001
Tried aggregator 3 times.
MIP Presolve eliminated 181731 rows and 41451 columns.
MIP Presolve added 6048 rows and 0 columns.
MIP Presolve modified 48880 coefficients.
Aggregator did 25801 substitutions.
Reduced MIP has 45511 rows, 38895 columns, and 126157 nonzeros.
Reduced MIP has 15289 binaries, 0 generals, 0 SOSs, and 0 indicators.
Presolve time = 0.59 sec. (332.64 ticks)
Probing fixed 743 vars, tightened 6991 bounds.
Probing time = 0.38 sec. (13.15 ticks)
Tried aggregator 2 times.
MIP Presolve eliminated 1682 rows and 1490 columns.
MIP Presolve modified 5486 coefficients.
Aggregator did 77 substitutions.
Reduced MIP has 43752 rows, 37328 columns, and 121072 nonzeros.
Reduced MIP has 14544 binaries, 0 generals, 0 SOSs, and 0 indicators.
Presolve time = 0.24 sec. (208.03 ticks)
Probing fixed 2 vars, tightened 269 bounds.
Probing time = 0.50 sec. (16.30 ticks)
Clique table members: 80018.
MIP emphasis: balance optimality and feasibility.
MIP search method: dynamic search.
Parallel mode: opportunistic, using up to 32 threads.
Root relaxation solution time = 1.08 sec. (1827.69 ticks)

        Nodes                                         Cuts/
   Node  Left     Objective  IInf  Best Integer    Best Bound    ItCnt     Gap

      0     0        0.0000   381                      0.0000    10941         
*     0+    0                            0.0000        0.0000             0.00%

Root node processing (before b&c):
  Real time             =    3.52 sec. (2829.96 ticks)
Parallel b&c, 32 threads:
  Real time             =    0.00 sec. (0.00 ticks)
  Sync time (average)   =    0.00 sec.
  Wait time (average)   =    0.00 sec.
                          ------------
Total (root+branch&cut) =    3.52 sec. (2829.96 ticks)

Solution pool: 1 solution saved.

MIP - Integer optimal, tolerance (0.001/1e-06):  Objective =  3.7348399928e-09
Current MIP best bound =  5.2038018339e-09 (gap = 1.46896e-09, 0.00%)
Solution time =    3.55 sec.  Iterations = 10941  Nodes = 0 (1)
Deterministic time = 2830.27 ticks  (797.93 ticks/sec)

CPLEX> Incumbent solution written to file 'C:\Users\llavin\Desktop\test85\logs\tmpd6ghlfst.cplex.sol'.
CPLEX> NOTE: no warmstart specified for MIP iteration, default behavior is true
NOTE: resolving with all competitive generators using storage-only solution to warmstart
Solving...

Welcome to IBM(R) ILOG(R) CPLEX(R) Interactive Optimizer 12.9.0.0
  with Simplex, Mixed Integer & Barrier Optimizers
5725-A06 5725-A29 5724-Y48 5724-Y49 5724-Y54 5724-Y55 5655-Y21
Copyright IBM Corp. 1988, 2019.  All Rights Reserved.

Type 'help' for a list of available commands.
Type 'help' followed by a command name for more
information on commands.

CPLEX> Logfile 'cplex.log' closed.
Logfile 'C:\Users\llavin\Desktop\test85\logs\tmprtb579by.cplex.log' open.
CPLEX> New value for parallel optimization mode: -1
CPLEX> New value for mixed integer optimality gap tolerance: 0.001
CPLEX> New value for deterministic time limit in ticks: 100000
CPLEX> Problem 'C:\Users\llavin\Desktop\test85\logs\tmpc2vpuolo.pyomo.lp' read.
Read time = 0.53 sec. (27.89 ticks)
CPLEX> MIP start file 'C:\Users\llavin\Desktop\test85\logs\tmpfuy794x7.cplex.mst' read.
CPLEX> Problem name         : C:\Users\llavin\Desktop\test85\logs\tmpc2vpuolo.pyomo.lp
Objective sense      : Maximize
Variables            :  109219  [Nneg: 1,  Box: 45494,  Free: 8928,
                                 Binary: 54796]
Objective nonzeros   :   18818
Linear constraints   :  246995  [Less: 82866,  Greater: 118424,  Equal: 45705]
  Nonzeros           :  580829
  RHS nonzeros       :  134591

Variables            : Min LB: -5000.000        Max UB: 1000000.       
Objective nonzeros   : Min   : 0.1944444        Max   : 2500.000       
Linear constraints   :
  Nonzeros           : Min   : 0.1944444        Max   : 1000000.       
  RHS nonzeros       : Min   : 0.1944444        Max   : 1000000.       
CPLEX> CPXPARAM_Parallel                                -1
CPXPARAM_DetTimeLimit                            100000
CPXPARAM_MIP_Tolerances_MIPGap                   0.001
Warning:  No solution found from 1 MIP starts.
Retaining values of one MIP start for possible repair.
Tried aggregator 3 times.
MIP Presolve eliminated 181731 rows and 42891 columns.
MIP Presolve added 6048 rows and 0 columns.
MIP Presolve modified 48880 coefficients.
Aggregator did 25801 substitutions.
Reduced MIP has 45511 rows, 38895 columns, and 126157 nonzeros.
Reduced MIP has 15289 binaries, 0 generals, 0 SOSs, and 0 indicators.
Presolve time = 0.61 sec. (333.34 ticks)
Probing fixed 743 vars, tightened 6991 bounds.
Probing time = 0.38 sec. (13.15 ticks)
Tried aggregator 2 times.
MIP Presolve eliminated 1682 rows and 1490 columns.
MIP Presolve modified 5486 coefficients.
Aggregator did 77 substitutions.
Reduced MIP has 43752 rows, 37328 columns, and 121072 nonzeros.
Reduced MIP has 14544 binaries, 0 generals, 0 SOSs, and 0 indicators.
Presolve time = 0.22 sec. (208.05 ticks)
Probing fixed 2 vars, tightened 269 bounds.
Probing time = 0.50 sec. (16.30 ticks)
Clique table members: 80018.
MIP emphasis: balance optimality and feasibility.
MIP search method: dynamic search.
Parallel mode: opportunistic, using up to 32 threads.
Root relaxation solution time = 1.06 sec. (1831.35 ticks)

        Nodes                                         Cuts/
   Node  Left     Objective  IInf  Best Integer    Best Bound    ItCnt     Gap

      0     0    20762.1712   396                  20762.1712    10724         
*     0+    0                        20758.7848    20762.1712             0.02%

Flow cuts applied:  38

Root node processing (before b&c):
  Real time             =    4.39 sec. (3366.62 ticks)
Parallel b&c, 32 threads:
  Real time             =    0.00 sec. (0.00 ticks)
  Sync time (average)   =    0.00 sec.
  Wait time (average)   =    0.00 sec.
                          ------------
Total (root+branch&cut) =    4.39 sec. (3366.62 ticks)

Solution pool: 1 solution saved.

MIP - Integer optimal, tolerance (0.001/1e-06):  Objective =  2.0758784816e+04
Current MIP best bound =  2.0762171234e+04 (gap = 3.38642, 0.02%)
Solution time =    4.42 sec.  Iterations = 10734  Nodes = 0 (1)
Deterministic time = 3366.93 ticks  (761.58 ticks/sec)

CPLEX> Incumbent solution written to file 'C:\Users\llavin\Desktop\test85\logs\tmpj5v_1eik.cplex.sol'.
CPLEX> Exporting results... 
